(set-info :smt-lib-version 2.6)
(set-info :category "crafted")
(set-logic QF_FFA)
(define-sort FF0 () (_ FiniteField 52435875175126190479447740508185965837690552500527637822603658699938581184513))
(declare-fun return_n0_alt () FF0)
(declare-fun mul_n11_alt () FF0)
(declare-fun mul_n18_alt () FF0)
(declare-fun j_n3_alt () FF0)
(declare-fun mul_n17_alt () FF0)
(declare-fun i_n5_alt () FF0)
(declare-fun mul_n16_alt () FF0)
(declare-fun h_n7_alt () FF0)
(declare-fun mul_n15_alt () FF0)
(declare-fun g_n9_alt () FF0)
(declare-fun mul_n14_alt () FF0)
(declare-fun f_n1_alt () FF0)
(declare-fun mul_n13_alt () FF0)
(declare-fun e_n2_alt () FF0)
(declare-fun mul_n12_alt () FF0)
(declare-fun d_n4_alt () FF0)
(declare-fun a_n10_alt () FF0)
(declare-fun c_n6_alt () FF0)
(declare-fun b_n8_alt () FF0)
(declare-fun return_n0 () FF0)
(declare-fun mul_n11 () FF0)
(declare-fun mul_n18 () FF0)
(declare-fun j_n3 () FF0)
(declare-fun mul_n17 () FF0)
(declare-fun i_n5 () FF0)
(declare-fun mul_n16 () FF0)
(declare-fun h_n7 () FF0)
(declare-fun mul_n15 () FF0)
(declare-fun g_n9 () FF0)
(declare-fun mul_n14 () FF0)
(declare-fun f_n1 () FF0)
(declare-fun mul_n13 () FF0)
(declare-fun e_n2 () FF0)
(declare-fun mul_n12 () FF0)
(declare-fun d_n4 () FF0)
(declare-fun a_n10 () FF0)
(declare-fun c_n6 () FF0)
(declare-fun b_n8 () FF0)
(assert 
  (let ((let0 (as ff1 FF0)))
  (let ((let1 (as ff52435875175126190479447740508185965837690552500527637822603658699938581184512 FF0)))
  (let ((let2 return_n0_alt))
  (let ((let3 (ff.mul let2 let1)))
  (let ((let4 (ff.add let3 let0)))
  (let ((let5 mul_n11_alt))
  (let ((let6 mul_n18_alt))
  (let ((let7 (ff.mul let6 let5)))
  (let ((let8 (= let7 let4)))
  (let ((let9 j_n3_alt))
  (let ((let10 (ff.mul let9 let1)))
  (let ((let11 (ff.add let10 let0)))
  (let ((let12 mul_n17_alt))
  (let ((let13 (ff.mul let12 let11)))
  (let ((let14 (= let13 let6)))
  (let ((let15 i_n5_alt))
  (let ((let16 (ff.mul let15 let1)))
  (let ((let17 (ff.add let16 let0)))
  (let ((let18 mul_n16_alt))
  (let ((let19 (ff.mul let18 let17)))
  (let ((let20 (= let19 let12)))
  (let ((let21 h_n7_alt))
  (let ((let22 (ff.mul let21 let1)))
  (let ((let23 (ff.add let22 let0)))
  (let ((let24 mul_n15_alt))
  (let ((let25 (ff.mul let24 let23)))
  (let ((let26 (= let25 let18)))
  (let ((let27 g_n9_alt))
  (let ((let28 (ff.mul let27 let1)))
  (let ((let29 (ff.add let28 let0)))
  (let ((let30 mul_n14_alt))
  (let ((let31 (ff.mul let30 let29)))
  (let ((let32 (= let31 let24)))
  (let ((let33 f_n1_alt))
  (let ((let34 (ff.mul let33 let1)))
  (let ((let35 (ff.add let34 let0)))
  (let ((let36 mul_n13_alt))
  (let ((let37 (ff.mul let36 let35)))
  (let ((let38 (= let37 let30)))
  (let ((let39 e_n2_alt))
  (let ((let40 (ff.mul let39 let1)))
  (let ((let41 (ff.add let40 let0)))
  (let ((let42 mul_n12_alt))
  (let ((let43 (ff.mul let42 let41)))
  (let ((let44 (= let43 let36)))
  (let ((let45 d_n4_alt))
  (let ((let46 (ff.mul let45 let1)))
  (let ((let47 (ff.add let46 let0)))
  (let ((let48 a_n10_alt))
  (let ((let49 (ff.mul let48 let1)))
  (let ((let50 (ff.add let49 let0)))
  (let ((let51 (ff.mul let50 let47)))
  (let ((let52 (= let51 let42)))
  (let ((let53 c_n6_alt))
  (let ((let54 (ff.mul let53 let1)))
  (let ((let55 (ff.add let54 let0)))
  (let ((let56 b_n8_alt))
  (let ((let57 (ff.mul let56 let55)))
  (let ((let58 (= let57 let5)))
  (let ((let59 (and let58 let52 let44 let38 let32 let26 let20 let14 let8)))
  (let ((let60 return_n0))
  (let ((let61 (ff.mul let60 let1)))
  (let ((let62 (ff.add let61 let0)))
  (let ((let63 mul_n11))
  (let ((let64 mul_n18))
  (let ((let65 (ff.mul let64 let63)))
  (let ((let66 (= let65 let62)))
  (let ((let67 j_n3))
  (let ((let68 (ff.mul let67 let1)))
  (let ((let69 (ff.add let68 let0)))
  (let ((let70 mul_n17))
  (let ((let71 (ff.mul let70 let69)))
  (let ((let72 (= let71 let64)))
  (let ((let73 i_n5))
  (let ((let74 (ff.mul let73 let1)))
  (let ((let75 (ff.add let74 let0)))
  (let ((let76 mul_n16))
  (let ((let77 (ff.mul let76 let75)))
  (let ((let78 (= let77 let70)))
  (let ((let79 h_n7))
  (let ((let80 (ff.mul let79 let1)))
  (let ((let81 (ff.add let80 let0)))
  (let ((let82 mul_n15))
  (let ((let83 (ff.mul let82 let81)))
  (let ((let84 (= let83 let76)))
  (let ((let85 g_n9))
  (let ((let86 (ff.mul let85 let1)))
  (let ((let87 (ff.add let86 let0)))
  (let ((let88 mul_n14))
  (let ((let89 (ff.mul let88 let87)))
  (let ((let90 (= let89 let82)))
  (let ((let91 f_n1))
  (let ((let92 (ff.mul let91 let1)))
  (let ((let93 (ff.add let92 let0)))
  (let ((let94 mul_n13))
  (let ((let95 (ff.mul let94 let93)))
  (let ((let96 (= let95 let88)))
  (let ((let97 e_n2))
  (let ((let98 (ff.mul let97 let1)))
  (let ((let99 (ff.add let98 let0)))
  (let ((let100 mul_n12))
  (let ((let101 (ff.mul let100 let99)))
  (let ((let102 (= let101 let94)))
  (let ((let103 d_n4))
  (let ((let104 (ff.mul let103 let1)))
  (let ((let105 (ff.add let104 let0)))
  (let ((let106 a_n10))
  (let ((let107 (ff.mul let106 let1)))
  (let ((let108 (ff.add let107 let0)))
  (let ((let109 (ff.mul let108 let105)))
  (let ((let110 (= let109 let100)))
  (let ((let111 c_n6))
  (let ((let112 (ff.mul let111 let1)))
  (let ((let113 (ff.add let112 let0)))
  (let ((let114 b_n8))
  (let ((let115 (ff.mul let114 let113)))
  (let ((let116 (= let115 let63)))
  (let ((let117 (and let116 let110 let102 let96 let90 let84 let78 let72 let66)))
  (let ((let118 (= let60 let2)))
  (let ((let119 (not let118)))
  (let ((let120 (= let114 let56)))
  (let ((let121 (= let97 let39)))
  (let ((let122 (= let73 let15)))
  (let ((let123 (= let111 let53)))
  (let ((let124 (= let85 let27)))
  (let ((let125 (= let67 let9)))
  (let ((let126 (= let79 let21)))
  (let ((let127 (= let103 let45)))
  (let ((let128 (= let106 let48)))
  (let ((let129 (= let91 let33)))
  (let ((let130 (and let129 let128 let127 let126 let125 let124 let123 let122 let121 let120)))
  (let ((let131 (and let130 let119 let117 let59)))
  let131
))))))))))))))))))))))))))))))))))))))))))))))))))))))))))))))))))))))))))))))))))))))))))))))))))))))))))))))))))))))))))))))))))))
)
(check-sat)
